Crypto/instances/samples/hf_n23/hf_n23_cnf06.sol
c DPLL-like Solver for max-min SAT
f file hf_n23_cnf06.cnf
p cnf 23 97
s max  97 2 -1 -3 -4 9 -12 23 11 -10 -19 -21 7 6 22 5 -17 -8 -18 -14 16 13 -15 -20
s min  79 -2 1 3 -4 -9 -12 23 -11 10 -19 -21 7 6 22 -5 -17 8 -18 14 -16 13 -15 -20